0 4796.42
1 4796.42
2 4796.42
3 4727.44
4 4727.44
5 4706.28
6 4706.28
7 4706.28
8 4706.28
9 4706.28
10 4706.28
11 4706.28
12 4706.28
13 4706.28
14 4706.28
15 4706.28
16 4703.61
17 4703.61
18 4703.61
19 4703.61
20 4703.61
21 4703.61
22 4700.57
23 4700.57
24 4700.57
25 4662.44
26 4662.44
27 4662.44
28 4662.44
29 4662.44
30 4658.02
31 4658.02
32 4658.02
33 4652.74
34 4652.74
35 4652.74
36 4652.74
37 4652.74
38 4652.74
39 4652.74
40 4652.74
41 4652.74
42 4652.74
43 4652.74
44 4652.74
45 4652.74
46 4652.74
47 4652.74
48 4652.74
49 4652.74
50 4652.74
51 4652.74
52 4629.89
53 4629.89
54 4629.89
55 4629.89
56 4629.89
57 4629.89
58 4629.89
59 4629.89
60 4629.89
61 4629.89
62 4629.89
63 4629.89
64 4629.89
65 4629.89
66 4629.89
67 4629.89
68 4629.89
69 4629.89
70 4629.89
71 4629.89
72 4629.89
73 4629.89
74 4629.89
75 4629.89
76 4629.89
77 4629.89
78 4629.89
79 4629.89
80 4629.89
81 4629.89
82 4629.89
83 4629.89
84 4629.89
85 4629.89
86 4629.89
87 4629.89
88 4629.89
89 4629.89
90 4629.89
91 4629.89
92 4629.89
93 4629.89
94 4629.89
95 4629.89
96 4629.89
97 4627.76
98 4624.29
99 4624.29
100 4624.29
101 4624.29
102 4624.29
103 4624.29
104 4624.29
105 4624.29
106 4624.29
107 4624.29
108 4624.29
109 4624.29
110 4624.29
111 4624.29
112 4624.29
113 4624.29
114 4624.29
115 4624.29
116 4624.29
117 4624.29
118 4624.29
119 4624.29
120 4624.29
121 4624.29
122 4624.29
123 4623.86
124 4623.86
125 4623.86
126 4623.86
127 4623.86
128 4623.86
129 4623.86
130 4623.86
131 4623.86
132 4623.86
133 4623.86
134 4617.00
135 4617.00
136 4617.00
137 4617.00
138 4617.00
139 4617.00
140 4617.00
141 4617.00
142 4617.00
143 4617.00
144 4617.00
145 4617.00
146 4617.00
147 4587.41
148 4587.41
149 4587.41
150 4587.41
151 4587.41
152 4587.41
153 4587.41
154 4587.41
155 4587.41
156 4587.41
157 4587.41
158 4587.41
159 4587.41
160 4587.41
161 4587.41
162 4587.41
163 4587.41
164 4577.85
165 4577.85
166 4577.85
167 4577.85
168 4577.85
169 4577.85
170 4577.85
171 4577.85
172 4577.85
173 4577.85
174 4577.85
175 4577.85
176 4577.85
177 4577.85
178 4572.48
179 4572.48
180 4572.48
181 4572.48
182 4572.48
183 4572.48
184 4572.48
185 4572.48
186 4570.57
187 4570.57
188 4570.57
189 4570.57
190 4570.57
191 4570.57
192 4570.57
193 4569.53
194 4569.53
195 4569.53
196 4569.53
197 4569.53
198 4569.53
199 4569.53
200 4569.53
201 4569.53
202 4569.53
203 4569.53
204 4569.53
205 4569.53
206 4569.53
207 4569.53
208 4569.53
209 4569.53
210 4569.53
211 4569.53
212 4569.53
213 4569.53
214 4569.53
215 4569.53
216 4569.53
217 4569.53
218 4569.53
219 4569.53
220 4569.53
221 4569.53
222 4569.53
223 4569.53
224 4569.53
225 4569.53
226 4569.53
227 4569.53
228 4569.53
229 4569.53
230 4569.53
231 4569.53
232 4569.53
233 4569.53
234 4569.53
235 4569.53
236 4569.53
237 4569.53
238 4569.53
239 4569.53
240 4569.53
241 4569.53
242 4569.53
243 4569.53
244 4569.53
245 4569.53
246 4569.53
247 4569.53
248 4569.53
249 4569.53
250 4569.53
251 4560.85
252 4560.85
253 4560.85
254 4560.85
255 4560.85
256 4560.85
257 4560.85
258 4560.85
259 4560.85
260 4560.85
261 4560.85
262 4560.85
263 4560.85
264 4560.85
265 4560.85
266 4560.85
267 4560.85
268 4560.85
269 4560.85
270 4560.85
271 4560.85
272 4560.85
273 4560.85
274 4560.85
275 4560.85
276 4560.85
277 4560.85
278 4560.85
279 4560.85
280 4560.85
281 4560.85
282 4560.85
283 4560.85
284 4559.07
285 4559.07
286 4559.07
287 4559.07
288 4559.07
289 4559.07
290 4559.07
291 4559.07
292 4559.07
293 4559.07
294 4559.07
295 4558.37
296 4558.37
297 4558.37
298 4558.37
299 4558.37
300 4558.37
301 4558.37
302 4558.37
303 4558.37
304 4558.37
305 4558.37
306 4558.37
307 4558.37
308 4558.37
309 4558.37
310 4558.37
311 4558.37
312 4558.37
313 4558.37
314 4558.37
315 4558.37
316 4558.37
317 4558.37
318 4558.37
319 4558.37
320 4558.37
321 4558.37
322 4558.37
323 4558.37
324 4558.37
325 4558.37
326 4558.37
327 4558.37
328 4558.37
329 4558.37
330 4558.37
331 4558.37
332 4558.37
333 4558.37
334 4558.37
335 4558.37
336 4558.37
337 4558.37
338 4558.37
339 4558.37
340 4558.37
341 4558.37
342 4558.37
343 4558.37
344 4558.37
345 4558.37
346 4558.37
347 4558.37
348 4558.37
349 4558.37
350 4558.37
351 4558.37
352 4558.37
353 4558.37
354 4558.37
355 4558.37
356 4558.37
357 4558.37
358 4558.37
359 4558.37
360 4558.37
361 4558.37
362 4558.37
363 4558.37
364 4558.37
365 4558.37
366 4558.37
367 4558.37
368 4558.37
369 4558.37
370 4558.37
371 4558.37
372 4558.37
373 4552.27
374 4552.27
375 4552.27
376 4552.27
377 4552.27
378 4552.27
379 4552.27
380 4552.27
381 4552.27
382 4552.27
383 4552.27
384 4552.27
385 4552.27
386 4552.27
387 4552.27
388 4552.27
389 4552.27
390 4552.27
391 4552.27
392 4552.27
393 4552.27
394 4552.27
395 4552.27
396 4552.27
397 4552.27
398 4552.27
399 4552.27
400 4552.27
401 4552.27
402 4552.27
403 4552.27
404 4552.27
405 4552.27
406 4552.27
407 4552.27
408 4552.27
409 4552.27
410 4552.27
411 4552.27
412 4552.27
413 4552.27
414 4552.27
415 4552.27
416 4552.27
417 4552.27
418 4552.27
419 4552.27
420 4552.27
421 4552.27
422 4552.27
423 4552.27
424 4552.27
425 4552.27
426 4551.71
427 4551.71
428 4551.71
429 4551.71
430 4551.71
431 4551.71
432 4551.71
433 4551.71
434 4551.71
435 4551.71
436 4551.71
437 4551.71
438 4551.71
439 4551.71
440 4551.71
441 4551.71
442 4551.71
443 4551.71
444 4551.71
445 4551.71
446 4551.71
447 4551.71
448 4551.71
449 4551.71
450 4551.71
451 4551.71
452 4551.71
453 4551.71
454 4551.51
455 4551.51
456 4551.51
457 4551.51
458 4550.45
459 4550.45
460 4550.00
461 4550.00
462 4550.00
463 4550.00
464 4550.00
465 4550.00
466 4550.00
467 4529.79
468 4529.79
469 4529.79
470 4529.79
471 4529.79
472 4529.79
473 4529.79
474 4529.79
475 4529.79
476 4529.79
477 4525.69
478 4525.69
479 4525.69
480 4525.69
481 4525.69
482 4525.69
483 4525.69
484 4525.69
485 4525.69
486 4525.69
487 4525.69
488 4525.69
489 4525.69
490 4525.69
491 4525.69
492 4525.69
493 4525.69
494 4525.69
495 4525.69
496 4525.69
497 4525.69
498 4525.69
499 4525.69
3 3 8 5 0 0 